MAC/build/benchmark/ISCAS85_sat/c499.dimacs
p cnf 455 1462
c 1 -> 98
c 5 -> 102
c 9 -> 106
c 13 -> 110
c 17 -> 114
c 21 -> 118
c 25 -> 122
c 29 -> 126
c 33 -> 130
c 37 -> 134
c 41 -> 138
c 45 -> 142
c 49 -> 146
c 53 -> 150
c 57 -> 154
c 61 -> 158
c 65 -> 162
c 69 -> 166
c 73 -> 170
c 77 -> 174
c 81 -> 178
c 85 -> 182
c 89 -> 186
c 93 -> 190
c 97 -> 194
c 101 -> 198
c 105 -> 202
c 109 -> 206
c 113 -> 210
c 117 -> 214
c 121 -> 218
c 125 -> 222
c 129 -> 390
c 130 -> 398
c 131 -> 404
c 132 -> 406
c 133 -> 408
c 134 -> 414
c 135 -> 420
c 136 -> 422
c 137 -> 391
-2 1 0
-3 1 0
-4 1 0
-5 1 0
-6 1 0
-7 1 0
-8 1 0
-9 1 0
-10 1 0
-11 1 0
-12 1 0
-13 1 0
-14 1 0
-15 1 0
-16 1 0
-17 1 0
-18 1 0
-19 1 0
-20 1 0
-21 1 0
-22 1 0
-23 1 0
-24 1 0
-25 1 0
-26 1 0
-27 1 0
-28 1 0
-29 1 0
-30 1 0
-31 1 0
-32 1 0
-33 1 0
2 3 4 5 6 7 8 9 10 11 12 13 14 15 16 17 18 19 20 21 22 23 24 25 26 27 28 29 30 31 32 33 -1 0
34 35 -2 0
-34 -35 -2 0
34 -35 2 0
-34 35 2 0
36 37 -3 0
-36 -37 -3 0
36 -37 3 0
-36 37 3 0
38 39 -4 0
-38 -39 -4 0
38 -39 4 0
-38 39 4 0
40 41 -5 0
-40 -41 -5 0
40 -41 5 0
-40 41 5 0
42 43 -6 0
-42 -43 -6 0
42 -43 6 0
-42 43 6 0
44 45 -7 0
-44 -45 -7 0
44 -45 7 0
-44 45 7 0
46 47 -8 0
-46 -47 -8 0
46 -47 8 0
-46 47 8 0
48 49 -9 0
-48 -49 -9 0
48 -49 9 0
-48 49 9 0
50 51 -10 0
-50 -51 -10 0
50 -51 10 0
-50 51 10 0
52 53 -11 0
-52 -53 -11 0
52 -53 11 0
-52 53 11 0
54 55 -12 0
-54 -55 -12 0
54 -55 12 0
-54 55 12 0
56 57 -13 0
-56 -57 -13 0
56 -57 13 0
-56 57 13 0
58 59 -14 0
-58 -59 -14 0
58 -59 14 0
-58 59 14 0
60 61 -15 0
-60 -61 -15 0
60 -61 15 0
-60 61 15 0
62 63 -16 0
-62 -63 -16 0
62 -63 16 0
-62 63 16 0
64 65 -17 0
-64 -65 -17 0
64 -65 17 0
-64 65 17 0
66 67 -18 0
-66 -67 -18 0
66 -67 18 0
-66 67 18 0
68 69 -19 0
-68 -69 -19 0
68 -69 19 0
-68 69 19 0
70 71 -20 0
-70 -71 -20 0
70 -71 20 0
-70 71 20 0
72 73 -21 0
-72 -73 -21 0
72 -73 21 0
-72 73 21 0
74 75 -22 0
-74 -75 -22 0
74 -75 22 0
-74 75 22 0
76 77 -23 0
-76 -77 -23 0
76 -77 23 0
-76 77 23 0
78 79 -24 0
-78 -79 -24 0
78 -79 24 0
-78 79 24 0
80 81 -25 0
-80 -81 -25 0
80 -81 25 0
-80 81 25 0
82 83 -26 0
-82 -83 -26 0
82 -83 26 0
-82 83 26 0
84 85 -27 0
-84 -85 -27 0
84 -85 27 0
-84 85 27 0
86 87 -28 0
-86 -87 -28 0
86 -87 28 0
-86 87 28 0
88 89 -29 0
-88 -89 -29 0
88 -89 29 0
-88 89 29 0
90 91 -30 0
-90 -91 -30 0
90 -91 30 0
-90 91 30 0
92 93 -31 0
-92 -93 -31 0
92 -93 31 0
-92 93 31 0
94 95 -32 0
-94 -95 -32 0
94 -95 32 0
-94 95 32 0
96 97 -33 0
-96 -97 -33 0
96 -97 33 0
-96 97 33 0
98 99 -34 0
-98 -99 -34 0
98 -99 34 0
-98 99 34 0
98 101 -35 0
-98 -101 -35 0
98 -101 35 0
-98 101 35 0
102 103 -36 0
-102 -103 -36 0
102 -103 36 0
-102 103 36 0
102 105 -37 0
-102 -105 -37 0
102 -105 37 0
-102 105 37 0
106 107 -38 0
-106 -107 -38 0
106 -107 38 0
-106 107 38 0
106 109 -39 0
-106 -109 -39 0
106 -109 39 0
-106 109 39 0
110 111 -40 0
-110 -111 -40 0
110 -111 40 0
-110 111 40 0
110 113 -41 0
-110 -113 -41 0
110 -113 41 0
-110 113 41 0
114 115 -42 0
-114 -115 -42 0
114 -115 42 0
-114 115 42 0
114 117 -43 0
-114 -117 -43 0
114 -117 43 0
-114 117 43 0
118 119 -44 0
-118 -119 -44 0
118 -119 44 0
-118 119 44 0
118 121 -45 0
-118 -121 -45 0
118 -121 45 0
-118 121 45 0
122 123 -46 0
-122 -123 -46 0
122 -123 46 0
-122 123 46 0
122 125 -47 0
-122 -125 -47 0
122 -125 47 0
-122 125 47 0
126 127 -48 0
-126 -127 -48 0
126 -127 48 0
-126 127 48 0
126 129 -49 0
-126 -129 -49 0
126 -129 49 0
-126 129 49 0
130 131 -50 0
-130 -131 -50 0
130 -131 50 0
-130 131 50 0
130 133 -51 0
-130 -133 -51 0
130 -133 51 0
-130 133 51 0
134 135 -52 0
-134 -135 -52 0
134 -135 52 0
-134 135 52 0
134 137 -53 0
-134 -137 -53 0
134 -137 53 0
-134 137 53 0
138 139 -54 0
-138 -139 -54 0
138 -139 54 0
-138 139 54 0
138 141 -55 0
-138 -141 -55 0
138 -141 55 0
-138 141 55 0
142 143 -56 0
-142 -143 -56 0
142 -143 56 0
-142 143 56 0
142 145 -57 0
-142 -145 -57 0
142 -145 57 0
-142 145 57 0
146 147 -58 0
-146 -147 -58 0
146 -147 58 0
-146 147 58 0
146 149 -59 0
-146 -149 -59 0
146 -149 59 0
-146 149 59 0
150 151 -60 0
-150 -151 -60 0
150 -151 60 0
-150 151 60 0
150 153 -61 0
-150 -153 -61 0
150 -153 61 0
-150 153 61 0
154 155 -62 0
-154 -155 -62 0
154 -155 62 0
-154 155 62 0
154 157 -63 0
-154 -157 -63 0
154 -157 63 0
-154 157 63 0
158 159 -64 0
-158 -159 -64 0
158 -159 64 0
-158 159 64 0
158 161 -65 0
-158 -161 -65 0
158 -161 65 0
-158 161 65 0
162 163 -66 0
-162 -163 -66 0
162 -163 66 0
-162 163 66 0
162 165 -67 0
-162 -165 -67 0
162 -165 67 0
-162 165 67 0
166 167 -68 0
-166 -167 -68 0
166 -167 68 0
-166 167 68 0
166 169 -69 0
-166 -169 -69 0
166 -169 69 0
-166 169 69 0
170 171 -70 0
-170 -171 -70 0
170 -171 70 0
-170 171 70 0
170 173 -71 0
-170 -173 -71 0
170 -173 71 0
-170 173 71 0
174 175 -72 0
-174 -175 -72 0
174 -175 72 0
-174 175 72 0
174 177 -73 0
-174 -177 -73 0
174 -177 73 0
-174 177 73 0
178 179 -74 0
-178 -179 -74 0
178 -179 74 0
-178 179 74 0
178 181 -75 0
-178 -181 -75 0
178 -181 75 0
-178 181 75 0
182 183 -76 0
-182 -183 -76 0
182 -183 76 0
-182 183 76 0
182 185 -77 0
-182 -185 -77 0
182 -185 77 0
-182 185 77 0
186 187 -78 0
-186 -187 -78 0
186 -187 78 0
-186 187 78 0
186 189 -79 0
-186 -189 -79 0
186 -189 79 0
-186 189 79 0
190 191 -80 0
-190 -191 -80 0
190 -191 80 0
-190 191 80 0
190 193 -81 0
-190 -193 -81 0
190 -193 81 0
-190 193 81 0
194 195 -82 0
-194 -195 -82 0
194 -195 82 0
-194 195 82 0
194 197 -83 0
-194 -197 -83 0
194 -197 83 0
-194 197 83 0
198 199 -84 0
-198 -199 -84 0
198 -199 84 0
-198 199 84 0
198 201 -85 0
-198 -201 -85 0
198 -201 85 0
-198 201 85 0
202 203 -86 0
-202 -203 -86 0
202 -203 86 0
-202 203 86 0
202 205 -87 0
-202 -205 -87 0
202 -205 87 0
-202 205 87 0
206 207 -88 0
-206 -207 -88 0
206 -207 88 0
-206 207 88 0
206 209 -89 0
-206 -209 -89 0
206 -209 89 0
-206 209 89 0
210 211 -90 0
-210 -211 -90 0
210 -211 90 0
-210 211 90 0
210 213 -91 0
-210 -213 -91 0
210 -213 91 0
-210 213 91 0
214 215 -92 0
-214 -215 -92 0
214 -215 92 0
-214 215 92 0
214 217 -93 0
-214 -217 -93 0
214 -217 93 0
-214 217 93 0
218 219 -94 0
-218 -219 -94 0
218 -219 94 0
-218 219 94 0
218 221 -95 0
-218 -221 -95 0
218 -221 95 0
-218 221 95 0
222 223 -96 0
-222 -223 -96 0
222 -223 96 0
-222 223 96 0
222 225 -97 0
-222 -225 -97 0
222 -225 97 0
-222 225 97 0
226 -99 0
227 -99 0
-226 -227 99 0
228 -101 0
229 -101 0
-228 -229 101 0
230 -103 0
227 -103 0
-230 -227 103 0
231 -105 0
229 -105 0
-231 -229 105 0
232 -107 0
227 -107 0
-232 -227 107 0
233 -109 0
229 -109 0
-233 -229 109 0
234 -111 0
227 -111 0
-234 -227 111 0
235 -113 0
229 -113 0
-235 -229 113 0
226 -115 0
236 -115 0
-226 -236 115 0
228 -117 0
237 -117 0
-228 -237 117 0
230 -119 0
236 -119 0
-230 -236 119 0
231 -121 0
237 -121 0
-231 -237 121 0
232 -123 0
236 -123 0
-232 -236 123 0
233 -125 0
237 -125 0
-233 -237 125 0
234 -127 0
236 -127 0
-234 -236 127 0
235 -129 0
237 -129 0
-235 -237 129 0
226 -131 0
238 -131 0
-226 -238 131 0
228 -133 0
239 -133 0
-228 -239 133 0
230 -135 0
238 -135 0
-230 -238 135 0
231 -137 0
239 -137 0
-231 -239 137 0
232 -139 0
238 -139 0
-232 -238 139 0
233 -141 0
239 -141 0
-233 -239 141 0
234 -143 0
238 -143 0
-234 -238 143 0
235 -145 0
239 -145 0
-235 -239 145 0
226 -147 0
240 -147 0
-226 -240 147 0
228 -149 0
241 -149 0
-228 -241 149 0
230 -151 0
240 -151 0
-230 -240 151 0
231 -153 0
241 -153 0
-231 -241 153 0
232 -155 0
240 -155 0
-232 -240 155 0
233 -157 0
241 -157 0
-233 -241 157 0
234 -159 0
240 -159 0
-234 -240 159 0
235 -161 0
241 -161 0
-235 -241 161 0
242 -163 0
243 -163 0
-242 -243 163 0
244 -165 0
245 -165 0
-244 -245 165 0
246 -167 0
243 -167 0
-246 -243 167 0
247 -169 0
245 -169 0
-247 -245 169 0
248 -171 0
243 -171 0
-248 -243 171 0
249 -173 0
245 -173 0
-249 -245 173 0
250 -175 0
243 -175 0
-250 -243 175 0
251 -177 0
245 -177 0
-251 -245 177 0
242 -179 0
252 -179 0
-242 -252 179 0
244 -181 0
253 -181 0
-244 -253 181 0
246 -183 0
252 -183 0
-246 -252 183 0
247 -185 0
253 -185 0
-247 -253 185 0
248 -187 0
252 -187 0
-248 -252 187 0
249 -189 0
253 -189 0
-249 -253 189 0
250 -191 0
252 -191 0
-250 -252 191 0
251 -193 0
253 -193 0
-251 -253 193 0
242 -195 0
254 -195 0
-242 -254 195 0
244 -197 0
255 -197 0
-244 -255 197 0
246 -199 0
254 -199 0
-246 -254 199 0
247 -201 0
255 -201 0
-247 -255 201 0
248 -203 0
254 -203 0
-248 -254 203 0
249 -205 0
255 -205 0
-249 -255 205 0
250 -207 0
254 -207 0
-250 -254 207 0
251 -209 0
255 -209 0
-251 -255 209 0
242 -211 0
256 -211 0
-242 -256 211 0
244 -213 0
257 -213 0
-244 -257 213 0
246 -215 0
256 -215 0
-246 -256 215 0
247 -217 0
257 -217 0
-247 -257 217 0
248 -219 0
256 -219 0
-248 -256 219 0
249 -221 0
257 -221 0
-249 -257 221 0
250 -223 0
256 -223 0
-250 -256 223 0
251 -225 0
257 -225 0
-251 -257 225 0
258 259 -226 0
-258 -259 -226 0
258 -259 226 0
-258 259 226 0
242 -227 0
260 -227 0
248 -227 0
261 -227 0
262 -227 0
-242 -260 -248 -261 -262 227 0
263 264 -228 0
-263 -264 -228 0
263 -264 228 0
-263 264 228 0
244 -229 0
265 -229 0
249 -229 0
266 -229 0
267 -229 0
-244 -265 -249 -266 -267 229 0
268 269 -230 0
-268 -269 -230 0
268 -269 230 0
-268 269 230 0
270 271 -231 0
-270 -271 -231 0
270 -271 231 0
-270 271 231 0
272 273 -232 0
-272 -273 -232 0
272 -273 232 0
-272 273 232 0
274 275 -233 0
-274 -275 -233 0
274 -275 233 0
-274 275 233 0
276 277 -234 0
-276 -277 -234 0
276 -277 234 0
-276 277 234 0
278 279 -235 0
-278 -279 -235 0
278 -279 235 0
-278 279 235 0
242 -236 0
260 -236 0
280 -236 0
250 -236 0
262 -236 0
-242 -260 -280 -250 -262 236 0
244 -237 0
265 -237 0
281 -237 0
251 -237 0
267 -237 0
-244 -265 -281 -251 -267 237 0
282 -238 0
246 -238 0
248 -238 0
261 -238 0
262 -238 0
-282 -246 -248 -261 -262 238 0
283 -239 0
247 -239 0
249 -239 0
266 -239 0
267 -239 0
-283 -247 -249 -266 -267 239 0
282 -240 0
246 -240 0
280 -240 0
250 -240 0
262 -240 0
-282 -246 -280 -250 -262 240 0
283 -241 0
247 -241 0
281 -241 0
251 -241 0
267 -241 0
-283 -247 -281 -251 -267 241 0
284 285 -242 0
-284 -285 -242 0
284 -285 242 0
-284 285 242 0
226 -243 0
286 -243 0
232 -243 0
287 -243 0
288 -243 0
-226 -286 -232 -287 -288 243 0
289 290 -244 0
-289 -290 -244 0
289 -290 244 0
-289 290 244 0
228 -245 0
291 -245 0
233 -245 0
292 -245 0
293 -245 0
-228 -291 -233 -292 -293 245 0
294 295 -246 0
-294 -295 -246 0
294 -295 246 0
-294 295 246 0
296 297 -247 0
-296 -297 -247 0
296 -297 247 0
-296 297 247 0
298 299 -248 0
-298 -299 -248 0
298 -299 248 0
-298 299 248 0
300 301 -249 0
-300 -301 -249 0
300 -301 249 0
-300 301 249 0
302 303 -250 0
-302 -303 -250 0
302 -303 250 0
-302 303 250 0
304 305 -251 0
-304 -305 -251 0
304 -305 251 0
-304 305 251 0
226 -252 0
286 -252 0
306 -252 0
234 -252 0
288 -252 0
-226 -286 -306 -234 -288 252 0
228 -253 0
291 -253 0
307 -253 0
235 -253 0
293 -253 0
-228 -291 -307 -235 -293 253 0
308 -254 0
230 -254 0
232 -254 0
287 -254 0
288 -254 0
-308 -230 -232 -287 -288 254 0
309 -255 0
231 -255 0
233 -255 0
292 -255 0
293 -255 0
-309 -231 -233 -292 -293 255 0
308 -256 0
230 -256 0
306 -256 0
234 -256 0
288 -256 0
-308 -230 -306 -234 -288 256 0
309 -257 0
231 -257 0
307 -257 0
235 -257 0
293 -257 0
-309 -231 -307 -235 -293 257 0
310 311 -258 0
-310 -311 -258 0
310 -311 258 0
-310 311 258 0
312 313 -259 0
-312 -313 -259 0
312 -313 259 0
-312 313 259 0
246 260 0
-246 -260 0
250 261 0
-250 -261 0
-314 262 0
-315 262 0
-316 262 0
-317 262 0
314 315 316 317 -262 0
318 319 -263 0
-318 -319 -263 0
318 -319 263 0
-318 319 263 0
320 321 -264 0
-320 -321 -264 0
320 -321 264 0
-320 321 264 0
247 265 0
-247 -265 0
251 266 0
-251 -266 0
-322 267 0
-323 267 0
-324 267 0
-325 267 0
322 323 324 325 -267 0
326 327 -268 0
-326 -327 -268 0
326 -327 268 0
-326 327 268 0
328 329 -269 0
-328 -329 -269 0
328 -329 269 0
-328 329 269 0
330 331 -270 0
-330 -331 -270 0
330 -331 270 0
-330 331 270 0
332 333 -271 0
-332 -333 -271 0
332 -333 271 0
-332 333 271 0
334 335 -272 0
-334 -335 -272 0
334 -335 272 0
-334 335 272 0
336 337 -273 0
-336 -337 -273 0
336 -337 273 0
-336 337 273 0
338 339 -274 0
-338 -339 -274 0
338 -339 274 0
-338 339 274 0
340 341 -275 0
-340 -341 -275 0
340 -341 275 0
-340 341 275 0
342 343 -276 0
-342 -343 -276 0
342 -343 276 0
-342 343 276 0
344 345 -277 0
-344 -345 -277 0
344 -345 277 0
-344 345 277 0
346 347 -278 0
-346 -347 -278 0
346 -347 278 0
-346 347 278 0
348 349 -279 0
-348 -349 -279 0
348 -349 279 0
-348 349 279 0
248 280 0
-248 -280 0
249 281 0
-249 -281 0
242 282 0
-242 -282 0
244 283 0
-244 -283 0
350 351 -284 0
-350 -351 -284 0
350 -351 284 0
-350 351 284 0
352 353 -285 0
-352 -353 -285 0
352 -353 285 0
-352 353 285 0
230 286 0
-230 -286 0
234 287 0
-234 -287 0
-354 288 0
-355 288 0
-356 288 0
-357 288 0
354 355 356 357 -288 0
358 359 -289 0
-358 -359 -289 0
358 -359 289 0
-358 359 289 0
360 361 -290 0
-360 -361 -290 0
360 -361 290 0
-360 361 290 0
231 291 0
-231 -291 0
235 292 0
-235 -292 0
-362 293 0
-363 293 0
-364 293 0
-365 293 0
362 363 364 365 -293 0
366 367 -294 0
-366 -367 -294 0
366 -367 294 0
-366 367 294 0
368 369 -295 0
-368 -369 -295 0
368 -369 295 0
-368 369 295 0
370 371 -296 0
-370 -371 -296 0
370 -371 296 0
-370 371 296 0
372 373 -297 0
-372 -373 -297 0
372 -373 297 0
-372 373 297 0
374 375 -298 0
-374 -375 -298 0
374 -375 298 0
-374 375 298 0
376 377 -299 0
-376 -377 -299 0
376 -377 299 0
-376 377 299 0
378 379 -300 0
-378 -379 -300 0
378 -379 300 0
-378 379 300 0
380 381 -301 0
-380 -381 -301 0
380 -381 301 0
-380 381 301 0
382 383 -302 0
-382 -383 -302 0
382 -383 302 0
-382 383 302 0
384 385 -303 0
-384 -385 -303 0
384 -385 303 0
-384 385 303 0
386 387 -304 0
-386 -387 -304 0
386 -387 304 0
-386 387 304 0
388 389 -305 0
-388 -389 -305 0
388 -389 305 0
-388 389 305 0
232 306 0
-232 -306 0
233 307 0
-233 -307 0
226 308 0
-226 -308 0
228 309 0
-228 -309 0
98 114 -310 0
-98 -114 -310 0
98 -114 310 0
-98 114 310 0
130 146 -311 0
-130 -146 -311 0
130 -146 311 0
-130 146 311 0
390 -312 0
391 -312 0
-390 -391 312 0
392 393 -313 0
-392 -393 -313 0
392 -393 313 0
-392 393 313 0
308 -314 0
286 -314 0
306 -314 0
234 -314 0
-308 -286 -306 -234 314 0
308 -315 0
286 -315 0
232 -315 0
287 -315 0
-308 -286 -232 -287 315 0
308 -316 0
230 -316 0
306 -316 0
287 -316 0
-308 -230 -306 -287 316 0
226 -317 0
286 -317 0
306 -317 0
287 -317 0
-226 -286 -306 -287 317 0
98 114 -318 0
-98 -114 -318 0
98 -114 318 0
-98 114 318 0
130 146 -319 0
-130 -146 -319 0
130 -146 319 0
-130 146 319 0
390 -320 0
391 -320 0
-390 -391 320 0
396 397 -321 0
-396 -397 -321 0
396 -397 321 0
-396 397 321 0
309 -322 0
291 -322 0
307 -322 0
235 -322 0
-309 -291 -307 -235 322 0
309 -323 0
291 -323 0
233 -323 0
292 -323 0
-309 -291 -233 -292 323 0
309 -324 0
231 -324 0
307 -324 0
292 -324 0
-309 -231 -307 -292 324 0
228 -325 0
291 -325 0
307 -325 0
292 -325 0
-228 -291 -307 -292 325 0
102 118 -326 0
-102 -118 -326 0
102 -118 326 0
-102 118 326 0
134 150 -327 0
-134 -150 -327 0
134 -150 327 0
-134 150 327 0
398 -328 0
391 -328 0
-398 -391 328 0
399 400 -329 0
-399 -400 -329 0
399 -400 329 0
-399 400 329 0
102 118 -330 0
-102 -118 -330 0
102 -118 330 0
-102 118 330 0
134 150 -331 0
-134 -150 -331 0
134 -150 331 0
-134 150 331 0
398 -332 0
391 -332 0
-398 -391 332 0
402 403 -333 0
-402 -403 -333 0
402 -403 333 0
-402 403 333 0
106 122 -334 0
-106 -122 -334 0
106 -122 334 0
-106 122 334 0
138 154 -335 0
-138 -154 -335 0
138 -154 335 0
-138 154 335 0
404 -336 0
391 -336 0
-404 -391 336 0
392 399 -337 0
-392 -399 -337 0
392 -399 337 0
-392 399 337 0
106 122 -338 0
-106 -122 -338 0
106 -122 338 0
-106 122 338 0
138 154 -339 0
-138 -154 -339 0
138 -154 339 0
-138 154 339 0
404 -340 0
391 -340 0
-404 -391 340 0
396 402 -341 0
-396 -402 -341 0
396 -402 341 0
-396 402 341 0
110 126 -342 0
-110 -126 -342 0
110 -126 342 0
-110 126 342 0
142 158 -343 0
-142 -158 -343 0
142 -158 343 0
-142 158 343 0
406 -344 0
391 -344 0
-406 -391 344 0
393 400 -345 0
-393 -400 -345 0
393 -400 345 0
-393 400 345 0
110 126 -346 0
-110 -126 -346 0
110 -126 346 0
-110 126 346 0
142 158 -347 0
-142 -158 -347 0
142 -158 347 0
-142 158 347 0
406 -348 0
391 -348 0
-406 -391 348 0
397 403 -349 0
-397 -403 -349 0
397 -403 349 0
-397 403 349 0
162 178 -350 0
-162 -178 -350 0
162 -178 350 0
-162 178 350 0
194 210 -351 0
-194 -210 -351 0
194 -210 351 0
-194 210 351 0
408 -352 0
391 -352 0
-408 -391 352 0
409 410 -353 0
-409 -410 -353 0
409 -410 353 0
-409 410 353 0
282 -354 0
260 -354 0
280 -354 0
250 -354 0
-282 -260 -280 -250 354 0
282 -355 0
260 -355 0
248 -355 0
261 -355 0
-282 -260 -248 -261 355 0
282 -356 0
246 -356 0
280 -356 0
261 -356 0
-282 -246 -280 -261 356 0
242 -357 0
260 -357 0
280 -357 0
261 -357 0
-242 -260 -280 -261 357 0
162 178 -358 0
-162 -178 -358 0
162 -178 358 0
-162 178 358 0
194 210 -359 0
-194 -210 -359 0
194 -210 359 0
-194 210 359 0
408 -360 0
391 -360 0
-408 -391 360 0
412 413 -361 0
-412 -413 -361 0
412 -413 361 0
-412 413 361 0
283 -362 0
265 -362 0
281 -362 0
251 -362 0
-283 -265 -281 -251 362 0
283 -363 0
265 -363 0
249 -363 0
266 -363 0
-283 -265 -249 -266 363 0
283 -364 0
247 -364 0
281 -364 0
266 -364 0
-283 -247 -281 -266 364 0
244 -365 0
265 -365 0
281 -365 0
266 -365 0
-244 -265 -281 -266 365 0
166 182 -366 0
-166 -182 -366 0
166 -182 366 0
-166 182 366 0
198 214 -367 0
-198 -214 -367 0
198 -214 367 0
-198 214 367 0
414 -368 0
391 -368 0
-414 -391 368 0
415 416 -369 0
-415 -416 -369 0
415 -416 369 0
-415 416 369 0
166 182 -370 0
-166 -182 -370 0
166 -182 370 0
-166 182 370 0
198 214 -371 0
-198 -214 -371 0
198 -214 371 0
-198 214 371 0
414 -372 0
391 -372 0
-414 -391 372 0
418 419 -373 0
-418 -419 -373 0
418 -419 373 0
-418 419 373 0
170 186 -374 0
-170 -186 -374 0
170 -186 374 0
-170 186 374 0
202 218 -375 0
-202 -218 -375 0
202 -218 375 0
-202 218 375 0
420 -376 0
391 -376 0
-420 -391 376 0
409 415 -377 0
-409 -415 -377 0
409 -415 377 0
-409 415 377 0
170 186 -378 0
-170 -186 -378 0
170 -186 378 0
-170 186 378 0
202 218 -379 0
-202 -218 -379 0
202 -218 379 0
-202 218 379 0
420 -380 0
391 -380 0
-420 -391 380 0
412 418 -381 0
-412 -418 -381 0
412 -418 381 0
-412 418 381 0
174 190 -382 0
-174 -190 -382 0
174 -190 382 0
-174 190 382 0
206 222 -383 0
-206 -222 -383 0
206 -222 383 0
-206 222 383 0
422 -384 0
391 -384 0
-422 -391 384 0
410 416 -385 0
-410 -416 -385 0
410 -416 385 0
-410 416 385 0
174 190 -386 0
-174 -190 -386 0
174 -190 386 0
-174 190 386 0
206 222 -387 0
-206 -222 -387 0
206 -222 387 0
-206 222 387 0
422 -388 0
391 -388 0
-422 -391 388 0
413 419 -389 0
-413 -419 -389 0
413 -419 389 0
-413 419 389 0
424 425 -392 0
-424 -425 -392 0
424 -425 392 0
-424 425 392 0
426 427 -393 0
-426 -427 -393 0
426 -427 393 0
-426 427 393 0
428 429 -396 0
-428 -429 -396 0
428 -429 396 0
-428 429 396 0
430 431 -397 0
-430 -431 -397 0
430 -431 397 0
-430 431 397 0
432 433 -399 0
-432 -433 -399 0
432 -433 399 0
-432 433 399 0
434 435 -400 0
-434 -435 -400 0
434 -435 400 0
-434 435 400 0
436 437 -402 0
-436 -437 -402 0
436 -437 402 0
-436 437 402 0
438 439 -403 0
-438 -439 -403 0
438 -439 403 0
-438 439 403 0
440 441 -409 0
-440 -441 -409 0
440 -441 409 0
-440 441 409 0
442 443 -410 0
-442 -443 -410 0
442 -443 410 0
-442 443 410 0
444 445 -412 0
-444 -445 -412 0
444 -445 412 0
-444 445 412 0
446 447 -413 0
-446 -447 -413 0
446 -447 413 0
-446 447 413 0
448 449 -415 0
-448 -449 -415 0
448 -449 415 0
-448 449 415 0
450 451 -416 0
-450 -451 -416 0
450 -451 416 0
-450 451 416 0
452 453 -418 0
-452 -453 -418 0
452 -453 418 0
-452 453 418 0
454 455 -419 0
-454 -455 -419 0
454 -455 419 0
-454 455 419 0
162 166 -424 0
-162 -166 -424 0
162 -166 424 0
-162 166 424 0
170 174 -425 0
-170 -174 -425 0
170 -174 425 0
-170 174 425 0
178 182 -426 0
-178 -182 -426 0
178 -182 426 0
-178 182 426 0
186 190 -427 0
-186 -190 -427 0
186 -190 427 0
-186 190 427 0
162 166 -428 0
-162 -166 -428 0
162 -166 428 0
-162 166 428 0
170 174 -429 0
-170 -174 -429 0
170 -174 429 0
-170 174 429 0
178 182 -430 0
-178 -182 -430 0
178 -182 430 0
-178 182 430 0
186 190 -431 0
-186 -190 -431 0
186 -190 431 0
-186 190 431 0
194 198 -432 0
-194 -198 -432 0
194 -198 432 0
-194 198 432 0
202 206 -433 0
-202 -206 -433 0
202 -206 433 0
-202 206 433 0
210 214 -434 0
-210 -214 -434 0
210 -214 434 0
-210 214 434 0
218 222 -435 0
-218 -222 -435 0
218 -222 435 0
-218 222 435 0
194 198 -436 0
-194 -198 -436 0
194 -198 436 0
-194 198 436 0
202 206 -437 0
-202 -206 -437 0
202 -206 437 0
-202 206 437 0
210 214 -438 0
-210 -214 -438 0
210 -214 438 0
-210 214 438 0
218 222 -439 0
-218 -222 -439 0
218 -222 439 0
-218 222 439 0
98 102 -440 0
-98 -102 -440 0
98 -102 440 0
-98 102 440 0
106 110 -441 0
-106 -110 -441 0
106 -110 441 0
-106 110 441 0
114 118 -442 0
-114 -118 -442 0
114 -118 442 0
-114 118 442 0
122 126 -443 0
-122 -126 -443 0
122 -126 443 0
-122 126 443 0
98 102 -444 0
-98 -102 -444 0
98 -102 444 0
-98 102 444 0
106 110 -445 0
-106 -110 -445 0
106 -110 445 0
-106 110 445 0
114 118 -446 0
-114 -118 -446 0
114 -118 446 0
-114 118 446 0
122 126 -447 0
-122 -126 -447 0
122 -126 447 0
-122 126 447 0
130 134 -448 0
-130 -134 -448 0
130 -134 448 0
-130 134 448 0
138 142 -449 0
-138 -142 -449 0
138 -142 449 0
-138 142 449 0
146 150 -450 0
-146 -150 -450 0
146 -150 450 0
-146 150 450 0
154 158 -451 0
-154 -158 -451 0
154 -158 451 0
-154 158 451 0
130 134 -452 0
-130 -134 -452 0
130 -134 452 0
-130 134 452 0
138 142 -453 0
-138 -142 -453 0
138 -142 453 0
-138 142 453 0
146 150 -454 0
-146 -150 -454 0
146 -150 454 0
-146 150 454 0
154 158 -455 0
-154 -158 -455 0
154 -158 455 0
-154 158 455 0
1 0
