MAC/examples/mac_results/isc85_cnf/c499.cnf
c Result of efficient AIG-to-CNF conversion using package CNF
p cnf 203 651
-2 -164 -3 0
-2 164 3 0
2 164 -3 0
2 -164 3 0
3 -4 -17 0
-3 4 0
-3 17 0
-4 5 8 0
-4 -5 -8 0
4 -5 8 0
4 5 -8 0
-5 6 7 0
-5 -6 -7 0
5 -6 7 0
5 6 -7 0
-6 -164 -168 0
-6 164 168 0
6 164 -168 0
6 -164 168 0
-7 -172 -176 0
-7 172 176 0
7 172 -176 0
7 -172 176 0
-8 9 10 0
-8 -9 -10 0
8 -9 10 0
8 9 -10 0
9 -196 -204 0
-9 196 0
-9 204 0
-10 11 14 0
-10 -11 -14 0
10 -11 14 0
10 11 -14 0
-11 12 13 0
-11 -12 -13 0
11 -12 13 0
11 12 -13 0
-12 -180 -181 0
-12 180 181 0
12 180 -181 0
12 -180 181 0
-13 -182 -183 0
-13 182 183 0
13 182 -183 0
13 -182 183 0
-14 15 16 0
-14 -15 -16 0
14 -15 16 0
14 15 -16 0
-15 -184 -185 0
-15 184 185 0
15 184 -185 0
15 -184 185 0
-16 -186 -187 0
-16 186 187 0
16 186 -187 0
16 -186 187 0
17 -18 46 -59 -72 0
-17 -46 0
-17 59 0
-17 18 0
-17 72 0
-18 -4 -39 0
-18 4 19 29 39 0
-18 -19 -39 0
-18 -4 -29 0
-18 -29 -39 0
-18 -4 -19 0
-18 -19 -29 0
18 4 -19 29 39 0
18 4 19 -29 39 0
18 -4 19 29 39 0
18 4 19 29 -39 0
-19 20 23 0
-19 -20 -23 0
19 -20 23 0
19 20 -23 0
-20 21 22 0
-20 -21 -22 0
20 -21 22 0
20 21 -22 0
-21 -167 -171 0
-21 167 171 0
21 167 -171 0
21 -167 171 0
-22 -175 -179 0
-22 175 179 0
22 175 -179 0
22 -175 179 0
-23 24 25 0
-23 -24 -25 0
23 -24 25 0
23 24 -25 0
24 -199 -204 0
-24 199 0
-24 204 0
-25 14 26 0
-25 -14 -26 0
25 -14 26 0
25 14 -26 0
-26 27 28 0
-26 -27 -28 0
26 -27 28 0
26 27 -28 0
-27 -192 -193 0
-27 192 193 0
27 192 -193 0
27 -192 193 0
-28 -194 -195 0
-28 194 195 0
28 194 -195 0
28 -194 195 0
-29 30 33 0
-29 -30 -33 0
29 -30 33 0
29 30 -33 0
-30 31 32 0
-30 -31 -32 0
30 -31 32 0
30 31 -32 0
-31 -166 -170 0
-31 166 170 0
31 166 -170 0
31 -166 170 0
-32 -174 -178 0
-32 174 178 0
32 174 -178 0
32 -174 178 0
-33 34 35 0
-33 -34 -35 0
33 -34 35 0
33 34 -35 0
34 -198 -204 0
-34 198 0
-34 204 0
-35 11 36 0
-35 -11 -36 0
35 -11 36 0
35 11 -36 0
-36 37 38 0
-36 -37 -38 0
36 -37 38 0
36 37 -38 0
-37 -188 -189 0
-37 188 189 0
37 188 -189 0
37 -188 189 0
-38 -190 -191 0
-38 190 191 0
38 190 -191 0
38 -190 191 0
-39 40 43 0
-39 -40 -43 0
39 -40 43 0
39 40 -43 0
-40 41 42 0
-40 -41 -42 0
40 -41 42 0
40 41 -42 0
-41 -165 -169 0
-41 165 169 0
41 165 -169 0
41 -165 169 0
-42 -173 -177 0
-42 173 177 0
42 173 -177 0
42 -173 177 0
-43 44 45 0
-43 -44 -45 0
43 -44 45 0
43 44 -45 0
44 -197 -204 0
-44 197 0
-44 204 0
-45 26 36 0
-45 -26 -36 0
45 -26 36 0
45 26 -36 0
-46 47 50 0
-46 -47 -50 0
46 -47 50 0
46 47 -50 0
-47 48 49 0
-47 -48 -49 0
47 -48 49 0
47 48 -49 0
-48 -183 -187 0
-48 183 187 0
48 183 -187 0
48 -183 187 0
-49 -191 -195 0
-49 191 195 0
49 191 -195 0
49 -191 195 0
-50 51 52 0
-50 -51 -52 0
50 -51 52 0
50 51 -52 0
51 -203 -204 0
-51 203 0
-51 204 0
-52 53 56 0
-52 -53 -56 0
52 -53 56 0
52 53 -56 0
-53 54 55 0
-53 -54 -55 0
53 -54 55 0
53 54 -55 0
-54 -168 -169 0
-54 168 169 0
54 168 -169 0
54 -168 169 0
-55 -170 -171 0
-55 170 171 0
55 170 -171 0
55 -170 171 0
-56 57 58 0
-56 -57 -58 0
56 -57 58 0
56 57 -58 0
-57 -176 -177 0
-57 176 177 0
57 176 -177 0
57 -176 177 0
-58 -178 -179 0
-58 178 179 0
58 178 -179 0
58 -178 179 0
-59 60 63 0
-59 -60 -63 0
59 -60 63 0
59 60 -63 0
-60 61 62 0
-60 -61 -62 0
60 -61 62 0
60 61 -62 0
-61 -182 -186 0
-61 182 186 0
61 182 -186 0
61 -182 186 0
-62 -190 -194 0
-62 190 194 0
62 190 -194 0
62 -190 194 0
-63 64 65 0
-63 -64 -65 0
63 -64 65 0
63 64 -65 0
64 -202 -204 0
-64 202 0
-64 204 0
-65 66 69 0
-65 -66 -69 0
65 -66 69 0
65 66 -69 0
-66 67 68 0
-66 -67 -68 0
66 -67 68 0
66 67 -68 0
-67 -164 -165 0
-67 164 165 0
67 164 -165 0
67 -164 165 0
-68 -166 -167 0
-68 166 167 0
68 166 -167 0
68 -166 167 0
-69 70 71 0
-69 -70 -71 0
69 -70 71 0
69 70 -71 0
-70 -172 -173 0
-70 172 173 0
70 172 -173 0
70 -172 173 0
-71 -174 -175 0
-71 174 175 0
71 174 -175 0
71 -174 175 0
72 -73 80 0
-72 73 0
-72 -80 0
-73 74 77 0
-73 -74 -77 0
73 -74 77 0
73 74 -77 0
-74 75 76 0
-74 -75 -76 0
74 -75 76 0
74 75 -76 0
-75 -180 -184 0
-75 180 184 0
75 180 -184 0
75 -180 184 0
-76 -188 -192 0
-76 188 192 0
76 188 -192 0
76 -188 192 0
-77 78 79 0
-77 -78 -79 0
77 -78 79 0
77 78 -79 0
78 -200 -204 0
-78 200 0
-78 204 0
-79 53 66 0
-79 -53 -66 0
79 -53 66 0
79 53 -66 0
-80 81 84 0
-80 -81 -84 0
80 -81 84 0
80 81 -84 0
-81 82 83 0
-81 -82 -83 0
81 -82 83 0
81 82 -83 0
-82 -181 -185 0
-82 181 185 0
82 181 -185 0
82 -181 185 0
-83 -189 -193 0
-83 189 193 0
83 189 -193 0
83 -189 193 0
-84 85 86 0
-84 -85 -86 0
84 -85 86 0
84 85 -86 0
85 -201 -204 0
-85 201 0
-85 204 0
-86 56 69 0
-86 -56 -69 0
86 -56 69 0
86 56 -69 0
-87 -165 -88 0
-87 165 88 0
87 165 -88 0
87 -165 88 0
88 -39 -17 0
-88 39 0
-88 17 0
-89 -166 -90 0
-89 166 90 0
89 166 -90 0
89 -166 90 0
90 -29 -17 0
-90 29 0
-90 17 0
-91 -167 -92 0
-91 167 92 0
91 167 -92 0
91 -167 92 0
92 -19 -17 0
-92 19 0
-92 17 0
-93 -168 -94 0
-93 168 94 0
93 168 -94 0
93 -168 94 0
94 -4 -95 0
-94 4 0
-94 95 0
95 -18 -46 -96 0
-95 96 0
-95 46 0
-95 18 0
96 59 -72 0
-96 -59 0
-96 72 0
-97 -169 -98 0
-97 169 98 0
97 169 -98 0
97 -169 98 0
98 -39 -95 0
-98 39 0
-98 95 0
-99 -170 -100 0
-99 170 100 0
99 170 -100 0
99 -170 100 0
100 -29 -95 0
-100 29 0
-100 95 0
-101 -171 -102 0
-101 171 102 0
101 171 -102 0
101 -171 102 0
102 -19 -95 0
-102 19 0
-102 95 0
-103 -172 -104 0
-103 172 104 0
103 172 -104 0
103 -172 104 0
104 -4 -105 0
-104 4 0
-104 105 0
105 -18 46 -59 -106 0
-105 -46 0
-105 59 0
-105 18 0
-105 106 0
106 73 -80 0
-106 -73 0
-106 80 0
-107 -173 -108 0
-107 173 108 0
107 173 -108 0
107 -173 108 0
108 -39 -105 0
-108 39 0
-108 105 0
-109 -174 -110 0
-109 174 110 0
109 174 -110 0
109 -174 110 0
110 -29 -105 0
-110 29 0
-110 105 0
-111 -175 -112 0
-111 175 112 0
111 175 -112 0
111 -175 112 0
112 -19 -105 0
-112 19 0
-112 105 0
-113 -176 -114 0
-113 176 114 0
113 176 -114 0
113 -176 114 0
114 -4 -115 0
-114 4 0
-114 115 0
115 -18 -46 -116 0
-115 116 0
-115 46 0
-115 18 0
116 59 -106 0
-116 -59 0
-116 106 0
-117 -177 -118 0
-117 177 118 0
117 177 -118 0
117 -177 118 0
118 -39 -115 0
-118 39 0
-118 115 0
-119 -178 -120 0
-119 178 120 0
119 178 -120 0
119 -178 120 0
120 -29 -115 0
-120 29 0
-120 115 0
-121 -179 -122 0
-121 179 122 0
121 179 -122 0
121 -179 122 0
122 -19 -115 0
-122 19 0
-122 115 0
-123 -180 -124 0
-123 180 124 0
123 180 -124 0
123 -180 124 0
124 -73 -125 0
-124 73 0
-124 125 0
125 19 -29 -126 -127 0
-125 126 0
-125 127 0
-125 -19 0
-125 29 0
126 -4 39 0
-126 4 0
-126 -39 0
-127 -46 -80 0
-127 46 59 73 80 0
-127 -59 -80 0
-127 -46 -73 0
-127 -73 -80 0
-127 -46 -59 0
-127 -59 -73 0
127 46 -59 73 80 0
127 46 59 -73 80 0
127 -46 59 73 80 0
127 46 59 73 -80 0
-128 -181 -129 0
-128 181 129 0
128 181 -129 0
128 -181 129 0
129 -80 -125 0
-129 80 0
-129 125 0
-130 -182 -131 0
-130 182 131 0
130 182 -131 0
130 -182 131 0
131 -59 -125 0
-131 59 0
-131 125 0
-132 -183 -133 0
-132 183 133 0
132 183 -133 0
132 -183 133 0
133 -46 -125 0
-133 46 0
-133 125 0
-134 -184 -135 0
-134 184 135 0
134 184 -135 0
134 -184 135 0
135 -73 -136 0
-135 73 0
-135 136 0
136 -19 -137 -127 0
-136 19 0
-136 137 0
-136 127 0
137 29 -126 0
-137 -29 0
-137 126 0
-138 -185 -139 0
-138 185 139 0
138 185 -139 0
138 -185 139 0
139 -80 -136 0
-139 80 0
-139 136 0
-140 -186 -141 0
-140 186 141 0
140 186 -141 0
140 -186 141 0
141 -59 -136 0
-141 59 0
-141 136 0
-142 -187 -143 0
-142 187 143 0
142 187 -143 0
142 -187 143 0
143 -46 -136 0
-143 46 0
-143 136 0
-144 -188 -145 0
-144 188 145 0
144 188 -145 0
144 -188 145 0
145 -73 -146 0
-145 73 0
-145 146 0
146 19 -29 -147 -127 0
-146 147 0
-146 127 0
-146 -19 0
-146 29 0
147 4 -39 0
-147 -4 0
-147 39 0
-148 -189 -149 0
-148 189 149 0
148 189 -149 0
148 -189 149 0
149 -80 -146 0
-149 80 0
-149 146 0
-150 -190 -151 0
-150 190 151 0
150 190 -151 0
150 -190 151 0
151 -59 -146 0
-151 59 0
-151 146 0
-152 -191 -153 0
-152 191 153 0
152 191 -153 0
152 -191 153 0
153 -46 -146 0
-153 46 0
-153 146 0
-154 -192 -155 0
-154 192 155 0
154 192 -155 0
154 -192 155 0
155 -73 -156 0
-155 73 0
-155 156 0
156 -19 -157 -127 0
-156 19 0
-156 157 0
-156 127 0
157 29 -147 0
-157 -29 0
-157 147 0
-158 -193 -159 0
-158 193 159 0
158 193 -159 0
158 -193 159 0
159 -80 -156 0
-159 80 0
-159 156 0
-160 -194 -161 0
-160 194 161 0
160 194 -161 0
160 -194 161 0
161 -59 -156 0
-161 59 0
-161 156 0
-162 -195 -163 0
-162 195 163 0
162 195 -163 0
162 -195 163 0
163 -46 -156 0
-163 46 0
-163 156 0
-205 0
2 0
87 0
89 0
91 0
93 0
97 0
99 0
101 0
103 0
107 0
109 0
111 0
113 0
117 0
119 0
121 0
123 0
128 0
130 0
132 0
134 0
138 0
140 0
142 0
144 0
148 0
150 0
152 0
154 0
158 0
160 0
162 0

